(set-info :origin "driver benchmark extracted from Microsoft SDV")
(set-logic HORN)
(declare-fun Proc40 (Int Int Int Int Bool Int) Bool)
(declare-fun Proc14 (Int Int Int Int Bool Int Int Int Int Int Int) Bool)
(declare-fun Proc45 (Int Int Int Int Bool Int) Bool)
(declare-fun Proc50 (Int Int Int Int Bool) Bool)
(declare-fun Proc17 (Int Int Int Int Bool Int Int Int) Bool)
(declare-fun Proc25 (Int Int Int Int Bool) Bool)
(declare-fun Proc33 (Int Int Int Int Bool Int) Bool)
(declare-fun Proc53 (Int Int Int Int Bool) Bool)
(declare-fun Proc47 (Int Int Int Int Bool Int Int) Bool)
(declare-fun Proc30 (Int Int Int Int Bool Int Int Int Int Bool Int) Bool)
(declare-fun Proc11 (Int Int Int Int Bool Int) Bool)
(declare-fun Proc42 (Int Int Int Int Bool Int) Bool)
(declare-fun Proc36 (Int Int Int Int Bool Int) Bool)
(declare-fun Proc27 (Int Int Int Int Bool Int Int) Bool)
(declare-fun Proc38 (Int Int Int Int Bool Int) Bool)
(declare-fun Proc52 (Int Int Int Int Bool Int Int) Bool)
(declare-fun Proc20 (Int Int Int Int Bool Int Int Int Int) Bool)
(declare-fun Proc10 (Int Int Int Int Bool Int) Bool)
(declare-fun Proc34 (Int Int Int Int Bool Int) Bool)
(declare-fun Proc54 (Int Int Int Int Bool Int Bool Int Int Int Int) Bool)
(declare-fun Proc32 (Int Int Int Int Bool Int) Bool)
(declare-fun Proc29 (Int Int Int Int Bool Int Int Int) Bool)
(declare-fun Proc12 (Int Int Int Int Bool Int Int Int Int Int Int) Bool)
(declare-fun Proc22 (Int Int Int Int Bool Int Int) Bool)
(declare-fun Proc23 (Int Int Int Int Bool Int Int Int) Bool)
(declare-fun Proc9 (Int Int Int Int Bool Int) Bool)
(declare-fun Proc35 (Int Int Int Int Bool Int) Bool)
(declare-fun Proc19 (Int Int Int Int Bool Int Int Int Int) Bool)
(declare-fun Proc2 (Int Int Int Int Bool) Bool)
(declare-fun Proc26 (Int Int Int Int Bool Int) Bool)
(declare-fun Proc43 (Int Int Int Int Bool Int) Bool)
(declare-fun Proc49 (Int Int Int Int Bool Int Int Int Int Int Int) Bool)
(declare-fun Proc24 (Int Int Int Int Bool Int Int Int) Bool)
(declare-fun Proc0 (Int Int Int Int Bool Int) Bool)
(declare-fun Proc16 (Int Int Int Int Bool Int) Bool)
(declare-fun Proc46 (Int Int Int Int Bool) Bool)
(declare-fun Proc37 (Int Int Int Int Bool Int) Bool)
(declare-fun Proc51 (Int Int Int Int Bool) Bool)
(declare-fun Proc44 (Int Int Int Int Bool Int Int) Bool)
(declare-fun Proc28 (Int Int Int Int Bool Int) Bool)
(declare-fun Proc48 (Int Int Int Int Bool Int) Bool)
(declare-fun Proc1 (Int Int Int Int Bool Int Int Int Int) Bool)
(declare-fun Proc3 (Int Int Int Int Bool Int Int) Bool)
(declare-fun Proc5 (Int Int Int Int Bool Int Int Int Int) Bool)
(declare-fun Proc8 (Int Int Int Int Bool Int Int) Bool)
(declare-fun Proc7 (Int Int Int Int Bool Int Int Int) Bool)
(declare-fun Proc13 (Int Int Int Int Bool Int Int Int Int) Bool)
(declare-fun Proc18 (Int Int Int Int Bool Int Int Int Int Int) Bool)
(declare-fun Proc21 (Int Int Int Int Bool Int Int Int) Bool)
(declare-fun Proc31 (Int Int Int Int Bool Int) Bool)
(declare-fun Proc6 (Int Int Int Int Bool Int) Bool)
(declare-fun Proc15 (Int Int Int Int Bool Int Int Int Int Int) Bool)
(declare-fun Proc4 (Int Int Int Int Bool Int Int Int) Bool)
(declare-fun Proc39 (Int Int Int Int Bool Int) Bool)
(declare-fun Proc41 (Int Int Int Int Bool Int) Bool)
(assert (forall ((A Int)
         (B Int)
         (C Int)
         (D Int)
         (E Int)
         (F Int)
         (G Int)
         (H Int)
         (I Int)
         (J Bool))
  (let ((a!1 (and (or (= I 0) (not (= B 0))) (not (= B 0)))))
  (let ((a!2 (and (or (not (Proc0 G F E D J H)) (= C 0) a!1) (or (= C 0) a!1))))
    (=> (not (or (not J) (= I 0) (= H 0) a!2)) (Proc1 G F E D J I H A B))))))
(assert (forall ((A Int)
         (B Int)
         (C Int)
         (D Int)
         (E Int)
         (F Int)
         (G Int)
         (H Int)
         (I Int)
         (J Bool)
         (K Int)
         (L Int)
         (M Int)
         (N Int)
         (O Int)
         (P Int)
         (Q Int)
         (R Int)
         (S Int)
         (T Int)
         (U Int)
         (V Int)
         (W Int)
         (X Int)
         (Y Int)
         (Z Int)
         (A1 Int)
         (B1 Int)
         (C1 Int)
         (D1 Int)
         (E1 Int)
         (F1 Int)
         (G1 Int)
         (H1 Int)
         (I1 Int)
         (J1 Int)
         (K1 Int)
         (L1 Int))
  (let ((a!1 (and (not (<= J1 (+ 112 L1))) (not (<= J1 K1))))
        (a!2 (not (and (not (= C1 0))
                       (= B1 (+ 20 C1))
                       (Proc4 J1 I1 H1 G1 J B1 E1 A1))))
        (a!3 (not (and (= T X) (= S U) (= R V))))
        (a!6 (not (and (not (= C1 0)) (Proc7 J1 I1 H1 G1 J Q E1 P))))
        (a!8 (not (and (not (= C1 0))
                       (= O (+ 20 C1))
                       (Proc8 J1 I1 H1 G1 J O E1))))
        (a!9 (not (and (not (= C1 0)) (Proc7 J1 I1 H1 G1 J N E1 M))))
        (a!10 (not (and (not (= C1 0)) (Proc9 J1 I1 H1 G1 J L))))
        (a!13 (not (Proc12 J1 I1 H1 G1 J E1 115 0 1 1 1)))
        (a!14 (not (and (not (= C1 0)) (Proc7 J1 I1 H1 G1 J K E1 I))))
        (a!23 (not (and (not (= C1 0)) (Proc7 H I1 H1 G1 J G E1 F))))
        (a!24 (not (and (not (= F 259)) (= E F))))
        (a!25 (not (Proc5 H I1 H1 G1 J E1 0 D C)))
        (a!30 (not (and (not (= E1 0)) (= E A)))))
  (let ((a!4 (or (not (and (= Y 1) (= X W) (= V Y) (= U Z))) a!3))
        (a!5 (or (= Y 1) (not (= X A1)) (not (and (= V Y) (= U Z))) a!3))
        (a!7 (or (= C1 0)
                 (= E1 0)
                 (not (Proc6 J1 I1 H1 G1 J E1))
                 a!6
                 (not (= X P))
                 (not (and (= V G1) (= U J1)))
                 a!3))
        (a!11 (or a!8
                  (not (Proc6 J1 I1 H1 G1 J E1))
                  (= C1 0)
                  a!9
                  a!10
                  (not (Proc10 J1 I1 H1 G1 J F1))
                  (not (= X M))
                  (not (and (= V G1) (= U J1)))
                  a!3))
        (a!12 (or (= E1 0)
                  (not (Proc6 J1 I1 H1 G1 J E1))
                  (= C1 0)
                  a!6
                  (not (= X P))
                  (not (and (= V G1) (= U J1)))
                  a!3))
        (a!15 (or (= F1 0)
                  (not (Proc11 J1 I1 H1 G1 J E1))
                  a!13
                  (= C1 0)
                  a!14
                  (not (= X I))
                  (not (and (= V G1) (= U J1)))
                  a!3))
        (a!16 (or (not (Proc11 J1 I1 H1 G1 J E1))
                  a!13
                  (= C1 0)
                  a!14
                  (not (= X I))
                  (not (and (= V G1) (= U J1)))
                  a!3))
        (a!26 (or (not (and (= C 1) (= X W) (= V C) (= U D))) a!3))
        (a!27 (or (= C 1) (not (= X E)) (not (and (= V C) (= U D))) a!3)))
  (let ((a!17 (or (= F1 0) (and (or (= F1 0) (and a!15 a!16)) a!15)))
        (a!28 (or (not (<= 0 E))
                  (= C1 0)
                  (and (or (= E1 0) a!25 (and a!26 a!27))
                       (or (= F1 0) (= E1 0) a!25 (and a!26 a!27))))))
  (let ((a!18 (or (= D1 0) (and a!17 (or (= D1 0) (and a!12 a!7)))))
        (a!29 (and (or (<= 0 E) (= E1 0) a!25 (and a!26 a!27)) a!28)))
  (let ((a!19 (or (= D1 0) (and (or (= C1 0) (and a!12 a!7)) a!18)))
        (a!31 (and (or a!24 a!29)
                   (or (not (= F 259))
                       (not (Proc14 H I1 H1 G1 J L1 0 0 0 0 B))
                       a!30
                       a!29))))
  (let ((a!20 (or (= D1 0) (and a!7 (or (= D1 0) (and a!7 a!19))))))
  (let ((a!21 (or (= D1 0) (and (or (= C1 0) (and a!12 a!7)) a!20))))
  (let ((a!22 (or (= D1 0) (and a!7 (or (= D1 0) (and a!11 a!21))))))
  (let ((a!32 (and a!22
                   (or (not (Proc13 J1 I1 H1 G1 J L1 0 0 H))
                       (not (Proc11 H I1 H1 G1 J E1))
                       (not (Proc12 H I1 H1 G1 J E1 116 L1 1 1 1))
                       (= C1 0)
                       a!23
                       a!31))))
  (let ((a!33 (and (or (<= 0 A1)
                       (= E1 0)
                       (not (Proc5 J1 I1 H1 G1 J E1 0 Z Y))
                       (and a!4 a!5))
                   (or (not (<= 0 A1)) (= D1 0) a!32))))
  (let ((a!34 (not (or (not J)
                       (not (= L1 K1))
                       (not a!1)
                       (not (Proc2 J1 I1 H1 G1 J))
                       (= F1 0)
                       (not (Proc3 J1 I1 H1 G1 J E1 D1))
                       a!2
                       a!33))))
    (=> a!34 (Proc15 K1 I1 H1 G1 J F1 E1 T S R)))))))))))))))
(assert (forall ((A Int)
         (B Int)
         (C Int)
         (D Int)
         (E Int)
         (F Int)
         (G Int)
         (H Int)
         (I Int)
         (J Bool)
         (K Int)
         (L Int)
         (M Int)
         (N Int)
         (O Int)
         (P Int)
         (Q Int)
         (R Int)
         (S Int)
         (T Int)
         (U Int))
  (let ((a!1 (not (and (not (= T 0)) (= S (+ 20 T)) (Proc4 R Q P O J S N M))))
        (a!2 (not (and (= E H) (= D F) (= C I))))
        (a!5 (not (and (not (= T 0)) (Proc17 R Q P O J B N A)))))
  (let ((a!3 (or (not (and (= K 1) (= I K) (= H G) (= F L))) a!2))
        (a!4 (or (= K 1) (not (= I K)) (not (and (= H M) (= F L))) a!2))
        (a!6 (or (not (<= 0 M))
                 (not (Proc16 R Q P O J N))
                 (not (Proc6 R Q P O J N))
                 (= T 0)
                 a!5
                 (not (= I O))
                 (not (and (= H A) (= F R)))
                 a!2)))
  (let ((a!7 (and (or (<= 0 M)
                      (= N 0)
                      (not (Proc16 R Q P O J N))
                      (not (Proc5 R Q P O J N 0 L K))
                      (and a!3 a!4))
                  a!6)))
    (=> (not (or (not J) (= U 0) a!1 a!7)) (Proc18 R Q P O J U N E D C)))))))
(assert (forall ((A Int)
         (B Int)
         (C Int)
         (D Int)
         (E Int)
         (F Int)
         (G Int)
         (H Int)
         (I Int)
         (J Bool)
         (K Int))
  (let ((a!1 (or (not (= I (- 1073741802))) (not (= H I))))
        (a!2 (or (not (Proc19 G F E D J C 0 0 B))
                 (not (= I (- 1073741802)))
                 (not (= H I)))))
    (=> (not (or (not J) (= K 0) (and a!1 a!2))) (Proc20 G F E D J A K C H)))))
(assert (forall ((A Int) (B Int) (C Int) (D Int) (E Int) (J Bool))
  (=> J (Proc10 E D C B J A))))
(assert (forall ((A Int) (B Int) (C Int) (D Int) (E Int) (J Bool))
  (=> J (Proc9 E D C B J A))))
(assert (forall ((A Int) (B Int) (C Int) (D Int) (E Int) (F Int) (G Int) (J Bool))
  (let ((a!1 (not (or (not J) (= G 0) (not (= F 259))))))
    (=> a!1 (Proc21 E D C B J A G F)))))
(assert (forall ((A Int)
         (B Int)
         (C Int)
         (D Int)
         (E Int)
         (F Int)
         (G Int)
         (H Int)
         (I Int)
         (J Bool)
         (K Int))
  (let ((a!1 (and (not (<= H (+ 1 K))) (not (<= H I)))))
  (let ((a!2 (not (or (not J) (not (= K I)) (not a!1) (not (= G H))))))
    (=> a!2 (Proc13 I F E D J C B A G))))))
(assert (forall ((A Int)
         (B Int)
         (C Int)
         (D Int)
         (E Int)
         (F Int)
         (G Int)
         (H Int)
         (I Int)
         (J Bool))
  (let ((a!1 (not (or (not J) (not (= I H))))))
    (=> a!1 (Proc19 G F E D J C B A I)))))
(assert (forall ((A Int)
         (B Int)
         (C Int)
         (D Int)
         (E Int)
         (F Int)
         (G Int)
         (H Int)
         (I Int)
         (J Bool)
         (K Int)
         (L Int)
         (M Int))
  (let ((a!1 (not (and (= M (- 1073741823)) (= L M)))))
  (let ((a!2 (and (or a!1 (not (= K L))) (or (not (= L 0)) (not (= K L))))))
    (=> (not (or (not J) a!2)) (Proc14 I H G F J E D C B A K))))))
(assert (forall ((A Int) (B Int) (C Int) (D Int) (E Int) (F Int) (G Int) (J Bool))
  (let ((a!1 (not (or (not J) (= G 0) (not (= F 259))))))
    (=> a!1 (Proc17 E D C B J A G F)))))
(assert (forall ((A Int) (B Int) (C Int) (D Int) (E Int) (J Bool))
  (=> J (Proc16 E D C B J A))))
(assert (forall ((A Int)
         (B Int)
         (C Int)
         (D Int)
         (E Int)
         (F Int)
         (G Int)
         (H Int)
         (I Int)
         (J Bool)
         (K Int))
  (let ((a!1 (and (not (<= H (+ 1 K))) (not (<= H I)))))
  (let ((a!2 (or (not J)
                 (not (= K I))
                 (not a!1)
                 (not (Proc22 H G F E J K D))
                 (not (and (= C H) (= B D))))))
    (=> (not a!2) (Proc23 I G F E J A C B))))))
(assert (forall ((A Int) (B Int) (C Int) (D Int) (E Int) (F Int) (J Bool))
  (let ((a!1 (not (or (not J) (not (= F 1))))))
    (=> a!1 (Proc22 E D C B J A F)))))
(assert (forall ((A Int)
         (B Int)
         (C Int)
         (D Int)
         (E Int)
         (F Int)
         (G Int)
         (H Int)
         (I Int)
         (J Bool)
         (K Int)
         (L Int))
  (let ((a!1 (or (not (= E 1))
                 (not (and (= D F) (= C E)))
                 (not (and (= B D) (= A C)))))
        (a!2 (or (= E 1)
                 (not (and (= D F) (= C E)))
                 (not (and (= B D) (= A C)))))
        (a!3 (or (not (= L 0))
                 (not (and (= D K) (= C H)))
                 (not (and (= B D) (= A C))))))
  (let ((a!4 (and (or (= L 0) (not (Proc23 K L I H J G F E)) (and a!1 a!2)) a!3)))
    (=> (not (or (not J) a!4)) (Proc24 K L I H J G B A))))))
(assert (forall ((A Int) (B Int) (C Int) (D Int) (J Bool)) (=> J (Proc25 D C B A J))))
(assert (forall ((A Int) (B Int) (C Int) (D Int) (E Int) (J Bool))
  (let ((a!1 (not (or (not J) (not (= E 0))))))
    (=> a!1 (Proc26 D C B A J E)))))
(assert (forall ((A Int) (B Int) (C Int) (D Int) (E Int) (F Int) (J Bool))
  (let ((a!1 (or (not J) (not (and (= F 0) (= E 0))))))
    (=> (not a!1) (Proc27 D C B A J F E)))))
(assert (forall ((A Int)
         (B Int)
         (C Int)
         (D Int)
         (E Int)
         (F Int)
         (G Int)
         (H Int)
         (I Int)
         (J Bool)
         (K Int)
         (L Int)
         (M Int)
         (N Int)
         (O Int)
         (P Int)
         (Q Int)
         (R Int)
         (S Int)
         (T Int)
         (M1 Bool)
         (N1 Bool)
         (O1 Bool))
  (let ((a!1 (not (and (not (<= T 0)) (Proc28 T S R Q O1 P))))
        (a!2 (not (and (= F H) (= E O) (= D I) (= C L) (= M1 N1) (= B K)))))
  (let ((a!3 (or (= I 0) (not (and (= H G) (not N1))) a!2))
        (a!4 (or (not (and (= I 0) (= J O1))) (not (and (= H A) (= N1 J))) a!2)))
  (let ((a!5 (and (or (= I 1) (and a!3 a!4)) (or (not (= I 1)) (and a!3 a!4)))))
  (let ((a!6 (not (or (not O1)
                      a!1
                      (not (Proc27 P S R Q O1 O N))
                      (not (Proc26 P O R N O1 M))
                      (not (Proc25 P O M N O1))
                      (not (Proc29 P O M N O1 L K I))
                      a!5))))
    (=> a!6 (Proc30 T S R Q O1 F E D C M1 B))))))))
(assert (forall ((A Int) (B Int) (C Int) (D Int) (E Int) (J Bool))
  (let ((a!1 (not (or (not J) (not (= E 1))))))
    (=> a!1 (Proc31 D C B A J E)))))
(assert (forall ((A Int) (B Int) (C Int) (D Int) (E Int) (J Bool))
  (let ((a!1 (not (or (not J) (not (= E 0))))))
    (=> a!1 (Proc32 D C B A J E)))))
(assert (forall ((A Int) (B Int) (C Int) (D Int) (E Int) (J Bool))
  (let ((a!1 (not (or (not J) (not (= E 1))))))
    (=> a!1 (Proc33 D C B A J E)))))
(assert (forall ((A Int) (B Int) (C Int) (D Int) (E Int) (J Bool))
  (let ((a!1 (not (or (not J) (not (= E 0))))))
    (=> a!1 (Proc34 D C B A J E)))))
(assert (forall ((A Int) (B Int) (C Int) (D Int) (E Int) (J Bool))
  (let ((a!1 (not (or (not J) (not (= E 1))))))
    (=> a!1 (Proc35 D C B A J E)))))
(assert (forall ((A Int) (B Int) (C Int) (D Int) (E Int) (J Bool))
  (let ((a!1 (not (or (not J) (not (= E 0))))))
    (=> a!1 (Proc36 D C B A J E)))))
(assert (forall ((A Int) (B Int) (C Int) (D Int) (E Int) (J Bool))
  (let ((a!1 (not (or (not J) (not (= E 1))))))
    (=> a!1 (Proc37 D C B A J E)))))
(assert (forall ((A Int) (B Int) (C Int) (D Int) (E Int) (J Bool))
  (let ((a!1 (not (or (not J) (not (= E 1))))))
    (=> a!1 (Proc38 D C B A J E)))))
(assert (forall ((A Int) (B Int) (C Int) (D Int) (E Int) (J Bool))
  (let ((a!1 (not (or (not J) (not (= E 0))))))
    (=> a!1 (Proc39 D C B A J E)))))
(assert (forall ((A Int) (B Int) (C Int) (D Int) (E Int) (J Bool))
  (let ((a!1 (not (or (not J) (not (= E 0))))))
    (=> a!1 (Proc40 D C B A J E)))))
(assert (forall ((A Int) (B Int) (C Int) (D Int) (E Int) (J Bool))
  (let ((a!1 (not (or (not J) (not (= E 0))))))
    (=> a!1 (Proc41 D C B A J E)))))
(assert (forall ((A Int) (B Int) (C Int) (D Int) (E Int) (F Int) (J Bool))
  (let ((a!1 (or (not J) (not (= F (- 1073741823))) (not (= E F)))))
    (=> (not a!1) (Proc42 D C B A J E)))))
(assert (forall ((A Int)
         (B Int)
         (C Int)
         (D Int)
         (E Int)
         (F Int)
         (G Int)
         (H Int)
         (I Int)
         (J Bool)
         (K Int))
  (let ((a!1 (not (and (= I (- 1073741738)) (= H I))))
        (a!2 (not (and (= F (- 1073741823)) (= H F)))))
  (let ((a!3 (and (or (= K 0) a!1 (not (= G H)))
                  (or (not (= K 0)) (not (= H 0)) (not (= G H)))
                  (or a!2 (not (= G H))))))
    (=> (not (or (not J) a!3)) (Proc4 E D K C J B A G))))))
(assert (forall ((A Int)
         (B Int)
         (C Int)
         (D Int)
         (E Int)
         (F Int)
         (G Int)
         (H Int)
         (J Bool))
  (let ((a!1 (not (or (not J) (not (Proc21 H G F E J D C B)) (not (= A B))))))
    (=> a!1 (Proc7 H G F E J D C A)))))
(assert (forall ((A Int)
         (B Int)
         (C Int)
         (D Int)
         (E Int)
         (F Int)
         (G Int)
         (H Int)
         (I Int)
         (J Bool)
         (K Int)
         (L Int)
         (M Int))
  (let ((a!1 (and (not (<= K (+ 1 M))) (not (<= K L))))
        (a!2 (or (not (= E 1)) (not (and (= D F) (= C E)))))
        (a!3 (or (= E 1) (not (and (= D F) (= C E))))))
  (let ((a!4 (not (or (not J)
                      (not (= M L))
                      (not a!1)
                      (not (Proc24 K I H G J M F E))
                      (and a!2 a!3)))))
    (=> a!4 (Proc5 L I H G J B A D C))))))
(assert (forall ((A Int) (B Int) (C Int) (D Int) (E Int) (J Bool))
  (let ((a!1 (not (or (not J) (not (= E 1))))))
    (=> a!1 (Proc43 D C B A J E)))))
(assert (forall ((A Int) (B Int) (C Int) (D Int) (E Int) (J Bool))
  (=> J (Proc11 E D C B J A))))
(assert (forall ((A Int) (B Int) (C Int) (D Int) (E Int) (F Int) (G Int) (J Bool))
  (let ((a!1 (not (or (not J) (= G 0) (not (= F E))))))
    (=> a!1 (Proc3 D C B A J G F)))))
(assert (forall ((A Int)
         (B Int)
         (C Int)
         (D Int)
         (E Int)
         (F Int)
         (G Int)
         (H Int)
         (I Int)
         (J Bool)
         (K Int))
  (let ((a!1 (and (or (not (= K I)) (not (= H K)))
                  (or (not (= K G)) (not (= H K)))
                  (or (not (= K F)) (not (= H K))))))
    (=> (not (or (not J) a!1)) (Proc44 E D C B J A H)))))
(assert (forall ((A Int) (B Int) (C Int) (D Int) (E Int) (J Bool))
  (=> J (Proc0 E D C B J A))))
(assert (forall ((A Int) (B Int) (C Int) (D Int) (E Int) (F Int) (J Bool))
  (=> J (Proc8 F E D C J B A))))
(assert (forall ((A Int)
         (B Int)
         (C Int)
         (D Int)
         (E Int)
         (F Int)
         (G Int)
         (H Int)
         (I Int)
         (J Bool)
         (K Int)
         (L Int))
  (let ((a!1 (not (or (not J) (not (Proc44 L K I H J G F)) (= F 0)))))
    (=> a!1 (Proc12 L K I H J G E D C B A)))))
(assert (forall ((A Int) (B Int) (C Int) (D Int) (E Int) (J Bool))
  (=> J (Proc6 E D C B J A))))
(assert (forall ((A Int)
         (B Int)
         (C Int)
         (D Int)
         (E Int)
         (F Int)
         (G Int)
         (H Int)
         (I Int)
         (J Bool)
         (K Int)
         (L Int)
         (M Int)
         (N Int)
         (O Int)
         (P Int)
         (Q Int)
         (R Int)
         (S Int)
         (T Int)
         (U Int)
         (V Int)
         (W Int)
         (X Int)
         (Y Int)
         (Z Int)
         (A1 Int)
         (B1 Int)
         (C1 Int)
         (D1 Int)
         (E1 Int)
         (F1 Int)
         (G1 Int)
         (H1 Int)
         (I1 Int)
         (J1 Int)
         (K1 Int)
         (L1 Int)
         (P1 Int)
         (Q1 Int)
         (R1 Int)
         (S1 Int)
         (T1 Int)
         (U1 Int)
         (V1 Int))
  (let ((a!1 (not (and (= H1 I1) (= G1 L1) (= F1 K1) (= E1 J1))))
        (a!2 (not (and (= D1 H1) (= C1 F1) (= B1 G1) (= A1 E1))))
        (a!20 (not (Proc15 U1 T1 F R1 J N V1 E D C))))
  (let ((a!3 (or (= Q1 0)
                 (not (Proc42 U1 T1 S1 R1 J P1))
                 (not (and (= L1 U1) (= K1 S1) (= J1 R1) (= I1 P1)))
                 (not (Proc47 L1 T1 K1 J1 J I1 V1))
                 (= V1 0)
                 a!1
                 a!2))
        (a!4 (or (= Q1 0)
                 (not (Proc42 U1 T1 S1 R1 J Z))
                 (not (and (= L1 U1) (= K1 S1) (= J1 R1) (= I1 Z)))
                 (not (Proc47 L1 T1 K1 J1 J I1 V1))
                 (= V1 0)
                 a!1
                 a!2))
        (a!5 (or (= Q1 0)
                 (not (Proc42 U1 T1 S1 R1 J Y))
                 (not (and (= L1 U1) (= K1 S1) (= J1 R1) (= I1 Y)))
                 (not (Proc47 L1 T1 K1 J1 J I1 V1))
                 (= V1 0)
                 a!1
                 a!2))
        (a!6 (or (= Q1 0)
                 (not (Proc42 U1 T1 S1 R1 J X))
                 (not (and (= L1 U1) (= K1 S1) (= J1 R1) (= I1 X)))
                 (not (Proc47 L1 T1 K1 J1 J I1 V1))
                 (= V1 0)
                 a!1
                 a!2))
        (a!7 (or (= Q1 0)
                 (not (Proc42 U1 T1 S1 R1 J W))
                 (not (and (= L1 U1) (= K1 S1) (= J1 R1) (= I1 W)))
                 (not (Proc47 L1 T1 K1 J1 J I1 V1))
                 (= V1 0)
                 a!1
                 a!2))
        (a!8 (or (= Q1 0)
                 (not (Proc42 U1 T1 S1 R1 J V))
                 (not (and (= L1 U1) (= K1 S1) (= J1 R1) (= I1 V)))
                 (not (Proc47 L1 T1 K1 J1 J I1 V1))
                 (= V1 0)
                 a!1
                 a!2))
        (a!9 (or (= Q1 0)
                 (not (Proc42 U1 T1 S1 R1 J U))
                 (not (and (= L1 U1) (= K1 S1) (= J1 R1) (= I1 U)))
                 (not (Proc47 L1 T1 K1 J1 J I1 V1))
                 (= V1 0)
                 a!1
                 a!2))
        (a!10 (or (not (Proc42 U1 T1 S1 R1 J T))
                  (not (and (= L1 U1) (= K1 S1) (= J1 R1) (= I1 T)))
                  (not (Proc47 L1 T1 K1 J1 J I1 V1))
                  (= V1 0)
                  a!1
                  a!2))
        (a!11 (or (= Q1 0)
                  (not (Proc42 U1 T1 S1 R1 J S))
                  (not (and (= L1 U1) (= K1 S1) (= J1 R1) (= I1 S)))
                  (not (Proc47 L1 T1 K1 J1 J I1 V1))
                  (= V1 0)
                  a!1
                  a!2))
        (a!12 (or (= Q1 0)
                  (not (Proc42 U1 T1 S1 R1 J R))
                  (not (and (= L1 U1) (= K1 S1) (= J1 R1) (= I1 R)))
                  (not (Proc47 L1 T1 K1 J1 J I1 V1))
                  (= V1 0)
                  a!1
                  a!2))
        (a!13 (or (= Q1 0)
                  (not (Proc42 U1 T1 S1 R1 J Q))
                  (not (and (= L1 U1) (= K1 S1) (= J1 R1) (= I1 Q)))
                  (not (Proc47 L1 T1 K1 J1 J I1 V1))
                  (= V1 0)
                  a!1
                  a!2))
        (a!14 (or (not (Proc42 U1 T1 S1 R1 J P))
                  (not (and (= L1 U1) (= K1 S1) (= J1 R1) (= I1 P)))
                  (not (Proc47 L1 T1 K1 J1 J I1 V1))
                  (= V1 0)
                  a!1
                  a!2))
        (a!15 (or (= Q1 0)
                  (not (Proc42 U1 T1 S1 R1 J O))
                  (not (and (= L1 U1) (= K1 S1) (= J1 R1) (= I1 O)))
                  (not (Proc47 L1 T1 K1 J1 J I1 V1))
                  (= V1 0)
                  a!1
                  a!2))
        (a!16 (or (not (= K 1))
                  (not (and (= H1 I) (= G1 L) (= F1 S1) (= E1 K)))
                  a!2))
        (a!17 (or (= K 1)
                  (not (and (= L1 L) (= K1 S1) (= J1 K) (= I1 M)))
                  (not (Proc47 L1 T1 K1 J1 J I1 V1))
                  (= V1 0)
                  a!1
                  a!2))
        (a!18 (or (= Q1 0)
                  (not (Proc42 U1 T1 S1 R1 J H))
                  (not (and (= L1 U1) (= K1 S1) (= J1 R1) (= I1 H)))
                  (not (Proc47 L1 T1 K1 J1 J I1 V1))
                  (= V1 0)
                  a!1
                  a!2))
        (a!19 (or (not (Proc42 U1 T1 S1 R1 J G))
                  (not (and (= L1 U1) (= K1 S1) (= J1 R1) (= I1 G)))
                  (not (Proc47 L1 T1 K1 J1 J I1 V1))
                  (= V1 0)
                  a!1
                  a!2))
        (a!21 (or (not (= C 1))
                  (not (and (= H1 I) (= G1 D) (= F1 F) (= E1 C)))
                  a!2))
        (a!22 (or (= C 1)
                  (not (and (= L1 D) (= K1 F) (= J1 C) (= I1 E)))
                  (not (Proc47 L1 T1 K1 J1 J I1 V1))
                  (= V1 0)
                  a!1
                  a!2)))
  (let ((a!23 (and (or (not (= F S1)) a!20 (and a!21 a!22))
                   (or (not (= F 1)) a!20 (and a!21 a!22)))))
  (let ((a!24 (and (or (= Q1 0) a!23)
                   (or (not (= S1 0)) (not (= B 1)) (= B 0) (= Q1 0) a!23))))
  (let ((a!25 (and (or (= Q1 0) a!24) (or (not (= A 1)) (= A 0) (= Q1 0) a!24))))
  (let ((a!26 (and a!3
                   a!4
                   a!5
                   a!6
                   a!7
                   a!8
                   a!9
                   a!10
                   a!11
                   a!12
                   a!13
                   a!14
                   a!15
                   (or (= Q1 0)
                       (not (Proc48 U1 T1 S1 R1 J V1))
                       (not (Proc18 U1 T1 S1 R1 J N V1 M L K))
                       (and a!16 a!17))
                   a!18
                   a!19
                   (or (= Q1 0) a!25))))
  (let ((a!27 (not (or (not J)
                       (= V1 0)
                       (not (Proc45 U1 T1 S1 R1 J V1))
                       (= Q1 0)
                       (not (Proc46 U1 T1 S1 R1 J))
                       a!26))))
    (=> a!27 (Proc49 U1 T1 S1 R1 J N V1 D1 C1 B1 A1)))))))))))
(assert (forall ((A Int) (B Int) (C Int) (D Int) (E Int) (F Int) (G Int) (J Bool))
  (let ((a!1 (not (or (not J)
                      (not (Proc50 G F E D J))
                      (not (Proc42 G F E D J C))
                      (not (Proc51 G F E D J))))))
    (=> a!1 (Proc52 G F E D J B A)))))
(assert (forall ((A Int) (B Int) (C Int) (D Int) (E Int) (F Int) (J Bool))
  (=> (not (or (not J) (= F 0) (= E 0))) (Proc48 D C B A J F))))
(assert (forall ((A Int) (B Int) (C Int) (D Int) (E Int) (J Bool))
  (=> (not (or (not J) (= E 0))) (Proc45 D C B A J E))))
(assert (forall ((A Int) (B Int) (C Int) (D Int) (J Bool)) (=> J (Proc2 D C B A J))))
(assert (forall ((A Int)
         (B Int)
         (C Int)
         (D Int)
         (E Int)
         (F Int)
         (G Int)
         (H Int)
         (I Int)
         (J Bool)
         (K Int)
         (L Int)
         (M Int)
         (N Int)
         (O Int)
         (P Int)
         (Q Int)
         (R Int)
         (S Int)
         (T Int)
         (U Int)
         (V Int)
         (W Int)
         (X Int)
         (Y Int)
         (Z Int)
         (A1 Int)
         (B1 Int)
         (C1 Int)
         (D1 Int)
         (E1 Int)
         (F1 Int)
         (G1 Int)
         (H1 Int)
         (I1 Int)
         (J1 Int)
         (K1 Int)
         (L1 Int)
         (P1 Int))
  (let ((a!1 (not (and (= N O) (= M P) (= L Q))))
        (a!3 (not (and (not (= R 1)) (= Q R) (= P S) (= O T)))))
  (let ((a!2 (or (not (and (= R 1) (= Q R) (= P S) (= O T))) a!1))
        (a!4 (or (not (and (= I1 0) (= Q J1) (= P P1) (= O K1))) a!1))
        (a!5 (or (= H1 0)
                 (not (Proc53 P1 L1 K1 J1 J))
                 (not (and (Proc52 P1 L1 K1 J1 J K I)
                           (= Q J1)
                           (= P P1)
                           (= O K1)))
                 a!1))
        (a!6 (or (not (and (= H1 0) (= Q J1) (= P P1) (= O K1))) a!1))
        (a!7 (or (not (= Q J1)) (not (and (= P P1) (= O K1))) a!1))
        (a!8 (or (not (Proc1 P1 L1 K1 J1 J H G F E))
                 (not (= Q J1))
                 (not (and (= P P1) (= O K1)))
                 a!1))
        (a!9 (or (not (Proc20 P1 L1 K1 J1 J D C B A))
                 (not (= Q J1))
                 (not (and (= P P1) (= O K1)))
                 a!1)))
  (let ((a!10 (and (or (= I1 0)
                       (not (Proc53 P1 L1 K1 J1 J))
                       (not (Proc49 P1 L1 K1 J1 J W V U T S R))
                       (and a!2 (or a!3 a!1)))
                   a!4
                   a!5
                   a!6
                   a!7
                   a!8
                   a!9)))
  (let ((a!11 (not (or (not J)
                       (not (Proc33 P1 L1 K1 J1 J I1))
                       (not (Proc40 P1 L1 K1 J1 J H1))
                       (not (Proc34 P1 L1 K1 J1 J G1))
                       (not (Proc39 P1 L1 K1 J1 J F1))
                       (not (Proc32 P1 L1 K1 J1 J E1))
                       (not (Proc36 P1 L1 K1 J1 J D1))
                       (not (Proc43 P1 L1 K1 J1 J C1))
                       (not (Proc41 P1 L1 K1 J1 J B1))
                       (not (Proc31 P1 L1 K1 J1 J A1))
                       (not (Proc37 P1 L1 K1 J1 J Z))
                       (not (Proc38 P1 L1 K1 J1 J Y))
                       (not (Proc35 P1 L1 K1 J1 J X))
                       a!10))))
    (=> a!11 (Proc29 P1 L1 K1 J1 J N M L))))))))
(assert (forall ((A Int) (B Int) (C Int) (D Int) (J Bool)) (=> J (Proc46 D C B A J))))
(assert (forall ((A Int) (B Int) (C Int) (D Int) (E Int) (F Int) (J Bool))
  (=> J (Proc47 F E D C J B A))))
(assert (forall ((A Int) (B Int) (C Int) (D Int) (J Bool)) (=> J (Proc53 D C B A J))))
(assert (forall ((A Int) (B Int) (C Int) (D Int) (J Bool)) (=> J (Proc50 D C B A J))))
(assert (forall ((A Int) (B Int) (C Int) (D Int) (J Bool)) (=> J (Proc51 D C B A J))))
(assert (forall ((A Int)
         (B Int)
         (C Int)
         (D Int)
         (E Int)
         (F Int)
         (G Int)
         (H Int)
         (I Int)
         (J Bool)
         (K Int)
         (L Int)
         (M Int)
         (N Int)
         (O Int)
         (P Int)
         (Q Int)
         (R Int)
         (S Int)
         (T Int)
         (U Int)
         (V Int)
         (W Int)
         (X Int)
         (Y Int)
         (Z Int)
         (A1 Int)
         (B1 Int)
         (C1 Int)
         (D1 Int)
         (E1 Int)
         (F1 Int)
         (G1 Int)
         (H1 Int)
         (I1 Int)
         (J1 Int)
         (K1 Int)
         (L1 Int)
         (P1 Int)
         (Q1 Int)
         (R1 Int)
         (S1 Int)
         (T1 Int)
         (U1 Int)
         (V1 Int)
         (W1 Int)
         (X1 Int)
         (Y1 Int)
         (Z1 Int)
         (A2 Int)
         (B2 Int)
         (C2 Int)
         (D2 Int)
         (E2 Int)
         (F2 Int)
         (G2 Int)
         (H2 Int)
         (I2 Int))
  (let ((a!1 (and (= I2 H2) (not (<= G2 (+ 16 I2)))))
        (a!2 (and (not (<= G2 H2))
                  (= F2 G2)
                  (not (<= E2 (+ 4 F2)))
                  (not (<= E2 G2))))
        (a!3 (and (= D2 E2)
                  (not (<= C2 (+ 332 D2)))
                  (not (<= C2 E2))
                  (= B2 C2)
                  (not (<= A2 (+ 4 B2)))
                  (not (<= A2 C2))
                  (= Z1 A2)
                  (not (<= Y1 (+ 536 Z1)))))
        (a!4 (and (not (<= Y1 A2))
                  (= X1 Y1)
                  (not (<= W1 (+ 240 X1)))
                  (not (<= W1 Y1))
                  (= V1 W1)
                  (not (<= U1 (+ 240 V1)))
                  (not (<= U1 W1))
                  (= T1 U1)
                  (not (<= S1 (+ 536 T1)))
                  (not (<= S1 U1))
                  (= R1 S1)
                  (not (<= Q1 (+ 240 R1)))
                  (not (<= Q1 S1))
                  (= P1 Q1)
                  (not (<= L1 (+ 4 P1)))
                  (not (<= L1 Q1))
                  (= K1 L1)
                  (not (<= J1 (+ 536 K1)))
                  (not (<= J1 L1))
                  (= I1 J1)
                  (not (<= H1 (+ 332 I1)))
                  (not (<= H1 J1))
                  (= G1 H1)
                  (not (<= F1 (+ 240 G1)))
                  (not (<= F1 H1))
                  (= E1 F1)
                  (not (<= D1 (+ 240 E1)))
                  (not (<= D1 F1))
                  (= C1 D1)
                  (not (<= B1 (+ 332 C1)))
                  (not (<= B1 D1))
                  (= A1 B1)
                  (not (<= Z (+ 4 A1)))
                  (not (<= Z B1))
                  (= Y Z)
                  (not (<= X (+ 536 Y)))
                  (not (<= X Z))
                  (= W X)
                  (not (<= V (+ 240 W)))
                  (not (<= V X))
                  (= U V)
                  (not (<= T (+ 240 U)))
                  (not (<= T V))
                  (= S T)
                  (not (<= R (+ 240 S)))
                  (not (<= R T))
                  (= Q R)
                  (not (<= P (+ 240 Q)))
                  (not (<= P R))
                  (= O P)
                  (not (<= N (+ 240 O)))
                  (not (<= N P))
                  (= M N)
                  (not (<= L (+ 40 M)))
                  (not (<= L N))
                  (= K L)
                  (not (<= I (+ 332 K)))
                  (not (<= I L))
                  (= H I)
                  (not (<= G (+ 4 H)))
                  (not (<= G I))
                  (= F G)
                  (not (<= E (+ 40 F)))
                  (not (<= E G)))))
  (let ((a!5 (not (or (not J)
                      (not a!1)
                      (not a!2)
                      (not a!3)
                      (not a!4)
                      (not (= D E))))))
    (=> a!5 (Proc28 H2 C B A J D))))))
(assert (forall ((A Int)
         (B Int)
         (C Int)
         (D Int)
         (E Int)
         (F Int)
         (G Int)
         (H Int)
         (I Int)
         (J Bool)
         (K Int)
         (L Int)
         (M Int)
         (N Int)
         (O Int)
         (M1 Bool)
         (N1 Bool))
  (let ((a!1 (or (not N1)
                 (not (and (Proc30 O N M L true K I H G M1 F) (not M1))))))
    (=> (not a!1) (Proc54 O N M L N1 E J D C B A)))))
(assert (let ((a!1 (exists ((V0 Int)
                    (V1 Int)
                    (V2 Int)
                    (V3 Int)
                    (V4 Bool)
                    (V5 Int)
                    (V6 Bool)
                    (V7 Int)
                    (V8 Int)
                    (V9 Int)
                    (V10 Int))
             (not (=> (and (Proc54 V0 V1 V2 V3 V4 V5 V6 V7 V8 V9 V10)
                           (not false))
                      false)))))
  (not a!1)))

(check-sat)
